generated by phonopy
   1.0
     5.8628821362336252    3.3849365795815318    0.0000000000000000
    -0.9771470227056042    1.6924682897907659    0.0000000000000000
     0.0000000000000000    0.0000000000000000    9.5631234454492322
He
  24
Direct
  0.0833333333333333  0.4999999999999998  0.0833333333333333
  0.3333333333333333  0.9999999999999998  0.0833333333333333
  0.5833333333333334  0.4999999999999998  0.0833333333333333
  0.8333333333333334  0.9999999999999998  0.0833333333333333
  0.0833333333333333  0.4999999999999998  0.4166666666666666
  0.3333333333333333  0.9999999999999998  0.4166666666666666
  0.5833333333333334  0.4999999999999998  0.4166666666666666
  0.8333333333333334  0.9999999999999998  0.4166666666666666
  0.0833333333333333  0.4999999999999998  0.7500000000000000
  0.3333333333333333  0.9999999999999998  0.7500000000000000
  0.5833333333333334  0.4999999999999998  0.7500000000000000
  0.8333333333333334  0.9999999999999998  0.7500000000000000
  0.1666666666666667  0.0000000000000000  0.2499999999999999
  0.4166666666666667  0.5000000000000000  0.2499999999999999
  0.6666666666666667  0.9999999999999998  0.2499999999999999
  0.9166666666666667  0.4999999999999998  0.2499999999999999
  0.1666666666666667  0.0000000000000000  0.5833333333333333
  0.4166666666666667  0.5000000000000000  0.5833333333333333
  0.6666666666666667  0.9999999999999998  0.5833333333333333
  0.9166666666666667  0.4999999999999998  0.5833333333333333
  0.1666666666666667  0.0000000000000000  0.9166666666666666
  0.4166666666666667  0.5000000000000000  0.9166666666666666
  0.6666666666666667  0.9999999999999998  0.9166666666666666
  0.9166666666666667  0.4999999999999998  0.9166666666666666
