PREC = Accurate

IBRION = -1
NSW = 0
ENCUT = 500
EDIFF = 1.0e-08

ISMEAR = 0; SIGMA = 0.01

LREAL = .FALSE.
LWAVE = .FALSE.
LCHARG = .FALSE.

NCORE = 4
KPAR = 2
