generated by phonopy
   1.0
    -8.1655535594999993    5.4437023730000007    8.1655535594999993
     2.7218511864999999    0.0000000000000000    2.7218511864999999
     2.7218511864999995    2.7218511864999995    0.0000000000000000
Si
   8
Direct
  0.0000000000000000  0.0000000000000000  0.0000000000000000
  0.2500000000000000  0.2500000000000000  0.5000000000000000
  0.5000000000000000  0.5000000000000000  0.0000000000000000
  0.7500000000000000  0.7500000000000000  0.5000000000000000
  0.0625000000000000  0.3125000000000000  0.3750000000000000
  0.3125000000000000  0.5625000000000000  0.8750000000000000
  0.5625000000000000  0.8125000000000000  0.3750000000000000
  0.8125000000000000  0.0625000000000000  0.8750000000000000
