generated by phonopy
   1.0
     8.2873966800000023    8.2873966800000005    0.0000000000000012
    -4.1436983399999994    4.1436983400000003   -0.0000000000000000
     0.0000000000000000    0.0000000000000000    4.1436983400000003
Cs Cl
   4    4
Direct
  0.0007276382589611  0.0007276382589611  0.0007276382589611
  0.2500000000000000  0.5000000000000000  0.0000000000000000
  0.5000000000000000  0.0000000000000000  0.0000000000000000
  0.7500000000000000  0.5000000000000000  0.0000000000000000
  0.2500000000000000  0.0000000000000000  0.5000000000000000
  0.5000000000000000  0.5000000000000000  0.4999999999999999
  0.7500000000000000  0.0000000000000000  0.5000000000000000
  0.0000000000000000  0.5000000000000000  0.5000000000000000
