generated by phonopy
   1.0
    -2.7218511864999995    2.7218511864999995    5.4437023729999989
     2.7218511865000004   -5.4437023729999989    2.7218511865000004
     2.7218511864999995    2.7218511864999995    0.0000000000000000
Si
   8
Direct
  0.0000000000000000  0.0000000000000000  0.0000000000000000
  0.5000000000000000  0.0000000000000000  0.5000000000000000
  0.2500000000000000  0.5000000000000000  0.7500000000000000
  0.7500000000000000  0.5000000000000000  0.2500000000000000
  0.1875000000000000  0.1250000000000000  0.5625000000000000
  0.6875000000000000  0.1250000000000000  0.0625000000000000
  0.4375000000000000  0.6250000000000000  0.3125000000000000
  0.9375000000000000  0.6250000000000000  0.8125000000000000
