generated by phonopy
   1.0
     0.0000000000000000    2.7218511864999999    2.7218511864999999
     2.7218511864999995    0.0000000000000000    2.7218511864999999
     2.7218511864999999    2.7218511864999999    0.0000000000000002
Si
   2
Direct
  0.0000000000000000  0.0000000000000000  0.0000000000000000
  0.2500000000000000  0.2500000000000000  0.2500000000000000
