generated by phonopy
   1.0
    -0.0000000000000004    0.0000000000000000    5.4437023729999998
    -5.4437023729999989    0.0000000000000000    0.0000000000000003
    -2.7218511865000004   -5.4437023729999998    2.7218511864999995
Si
   8
Direct
  0.0000000000000000  0.0000000000000000  0.0014998920311614
  0.7499999999999998  0.2500000000000000  0.5000000000000000
  0.4999999999999999  0.4999999999999999  0.0000000000000000
  0.2500000000000000  0.7500000000000002  0.5000000000000000
  0.3749999999999999  0.8749999999999999  0.7500000000000000
  0.1250000000000000  0.1250000000000000  0.2500000000000000
  0.8749999999999999  0.3750000000000001  0.7500000000000000
  0.6249999999999999  0.6250000000000000  0.2500000000000000
