generated by phonopy
   1.0
     1.9542940454112085    0.0000000000000000    0.0000000000000000
    -0.9771470227056042    1.6924682897907655    0.0000000000000000
     0.0000000000000000    0.0000000000000000    3.1877078151497429
He
   2
Direct
  0.3333333333333333  0.6666666666666666  0.2500000000000000
  0.6666666666666666  0.3333333333333334  0.7500000000000000
