generated by phonopy
   1.0
    16.5747933600000010    0.0000000000000000    0.0000000000000012
     0.0000000000000007    4.1436983400000003    0.0000000000000003
     0.0000000000000000    0.0000000000000000    4.1436983400000003
Cs Cl
   4    4
Direct
  0.0000000000000000  0.0000000000000000  0.0000000000000000
  0.2500000000000000  0.0000000000000000  0.0000000000000000
  0.5000000000000000  0.0000000000000000  0.0000000000000000
  0.7500000000000000  0.0000000000000000  0.0000000000000000
  0.1255853119728700  0.5005853119728699  0.5000000000000000
  0.3750000000000000  0.5000000000000000  0.4999999999999999
  0.6250000000000000  0.5000000000000000  0.5000000000000000
  0.8750000000000000  0.5000000000000000  0.5000000000000000
