generated by phonopy
   1.0
     1.9542940454112083    0.0000000000000000    0.0000000000000000
    -0.9771470227056042    1.6924682897907659    0.0000000000000000
     0.0000000000000000    0.0000000000000000    3.1877078151497438
He
   2
Direct
  0.3333333333333333  0.6666666666666664  0.2499999999999999
  0.6666666666666667  0.3333333333333335  0.7499999999999998
