generated by phonopy
   1.0
     0.0000000000000003    0.0000000000000003  -10.8874047459999979
    -2.7218511864999995    2.7218511864999995   -0.0000000000000001
     2.7218511864999995    2.7218511864999995    0.0000000000000000
Si
   8
Direct
  0.0008659630679464  0.0008659630679464  0.0000000000000000
  0.7499999999999999  0.4999999999999999  0.4999999999999999
  0.5000000000000000  0.0000000000000000  0.0000000000000000
  0.2500000000000000  0.5000000000000000  0.5000000000000000
  0.8749999999999999  0.0000000000000000  0.5000000000000000
  0.6250000000000000  0.5000000000000000  0.0000000000000000
  0.3749999999999999  0.0000000000000000  0.4999999999999999
  0.1250000000000000  0.5000000000000000  0.0000000000000000
