generated by phonopy
   1.0
    -0.0000000000000004    0.0000000000000000    5.4437023729999998
    -5.4437023729999989    0.0000000000000000    0.0000000000000003
    -2.7218511865000004   -5.4437023729999998    2.7218511864999995
Si
   8
Direct
  0.0000000000000000  0.0000000000000000  0.0000000000000000
  0.7500000000000000  0.2500000000000000  0.5000000000000000
  0.5000000000000000  0.5000000000000000  0.0000000000000000
  0.2500000000000000  0.7500000000000000  0.5000000000000000
  0.3750000000000000  0.8750000000000000  0.7500000000000000
  0.1250000000000000  0.1250000000000000  0.2500000000000000
  0.8750000000000000  0.3750000000000000  0.7500000000000000
  0.6250000000000000  0.6250000000000000  0.2500000000000000
