generated by phonopy
   1.0
     4.1436983400000011    4.1436983400000003    8.2873966800000005
     4.1436983399999994   -4.1436983400000003    0.0000000000000000
     0.0000000000000007    4.1436983400000003   -4.1436983399999994
Cs Cl
   4    4
Direct
  0.0009852268600804  0.0000000000000000  0.0000000000000000
  0.2500000000000000  0.7500000000000001  0.4999999999999999
  0.4999999999999999  0.5000000000000001  0.0000000000000000
  0.7500000000000000  0.2500000000000000  0.5000000000000000
  0.3750000000000000  0.1250000000000000  0.2500000000000000
  0.6250000000000000  0.8750000000000001  0.7499999999999999
  0.8749999999999999  0.6250000000000002  0.2500000000000000
  0.1250000000000001  0.3749999999999999  0.7499999999999999
