generated by phonopy
   1.0
     1.9542940454112083    3.3849365795815318    0.0000000000000000
    -2.9314410681168126    1.6924682897907659    0.0000000000000000
     0.0000000000000000    0.0000000000000000    9.5631234454492322
He
  24
Direct
  0.2509198414279873  0.1675865080946540  0.0842531747613207
  0.5000000000000000  0.6666666666666667  0.0833333333333333
  0.7500000000000001  0.1666666666666666  0.0833333333333333
  0.0000000000000001  0.6666666666666665  0.0833333333333333
  0.2500000000000000  0.1666666666666666  0.4166666666666667
  0.5000000000000000  0.6666666666666667  0.4166666666666667
  0.7500000000000001  0.1666666666666666  0.4166666666666667
  0.0000000000000001  0.6666666666666665  0.4166666666666667
  0.2500000000000000  0.1666666666666666  0.7500000000000000
  0.5000000000000000  0.6666666666666667  0.7500000000000000
  0.7500000000000001  0.1666666666666666  0.7500000000000000
  0.0000000000000001  0.6666666666666665  0.7500000000000000
  0.2500000000000001  0.8333333333333333  0.2499999999999999
  0.5000000000000000  0.3333333333333333  0.2499999999999999
  0.7500000000000002  0.8333333333333333  0.2499999999999999
  0.0000000000000000  0.3333333333333331  0.2499999999999999
  0.2500000000000001  0.8333333333333333  0.5833333333333334
  0.5000000000000000  0.3333333333333333  0.5833333333333334
  0.7500000000000002  0.8333333333333333  0.5833333333333334
  0.0000000000000000  0.3333333333333331  0.5833333333333334
  0.2500000000000001  0.8333333333333333  0.9166666666666667
  0.5000000000000000  0.3333333333333333  0.9166666666666667
  0.7500000000000002  0.8333333333333333  0.9166666666666667
  0.0000000000000000  0.3333333333333331  0.9166666666666667
