generated by phonopy
   1.0
    -0.0000000000000004   -0.0000000000000004    5.4437023729999989
     5.4437023729999989   -5.4437023729999989    0.0000000000000003
     2.7218511864999999    2.7218511864999999    0.0000000000000000
Si
   8
Direct
  0.0000000000000000  0.0000000000000000  0.0000000000000000
  0.5000000000000000  0.7500000000000000  0.5000000000000000
  0.0000000000000000  0.5000000000000000  0.0000000000000000
  0.5000000000000000  0.2500000000000000  0.5000000000000000
  0.2500000000000000  0.0000000000000000  0.5000000000000000
  0.7500000000000000  0.7500000000000000  0.0000000000000000
  0.2500000000000000  0.5000000000000000  0.5000000000000000
  0.7500000000000000  0.2500000000000000  0.0000000000000000
