generated by phonopy
   1.0
     8.2873966800000005    0.0000000000000000    0.0000000000000006
    -4.1436983399999985    8.2873966800000005    0.0000000000000003
     0.0000000000000000    0.0000000000000000    4.1436983400000003
Cs Cl
   4    4
Direct
  0.0000000000000000  0.0000000000000000  0.0000000000000000
  0.5000000000000000  0.0000000000000000  0.0000000000000000
  0.2500000000000000  0.5000000000000000  0.0000000000000000
  0.7500000000000000  0.5000000000000000  0.0000000000000000
  0.3750000000000001  0.2509852268600804  0.5009852268600804
  0.8749999999999999  0.2500000000000000  0.4999999999999999
  0.6250000000000000  0.7500000000000000  0.4999999999999999
  0.1250000000000000  0.7500000000000000  0.5000000000000000
