generated by phonopy
   1.0
     4.1436983400000011    4.1436983400000003    0.0000000000000006
     4.1436983399999994   -4.1436983400000003    0.0000000000000000
     0.0000000000000007    4.1436983400000003   -8.2873966800000005
Cs Cl
   4    4
Direct
  0.0000000000000000  0.0000000000000000  0.0000000000000000
  0.5000000000000000  0.5000000000000000  0.0000000000000000
  0.2500000000000000  0.7500000000000000  0.5000000000000000
  0.7500000000000001  0.2499999999999999  0.5000000000000000
  0.6250000000000001  0.8750000000000001  0.7510792619510521
  0.1250000000000000  0.3750000000000000  0.7500000000000000
  0.8750000000000000  0.6249999999999999  0.2500000000000000
  0.3750000000000001  0.1250000000000000  0.2500000000000000
